1000 100
293 468
155 248
352 297
281 205
247 391
74 476
66 436
168 19
195 44
212 182
331 50
302 77
246 449
201 287
81 150
88 295
208 338
108 49
221 144
106 321
440 323
338 41
107 474
96 146
312 133
468 450
171 244
53 62
480 458
426 459
330 285
361 175
95 418
4 43
37 80
18 112
140 457
271 205
336 415
480 297
287 105
348 401
142 289
167 423
107 498
283 15
472 450
345 59
68 88
146 311
478 210
472 421
479 469
241 12
234 442
320 304
133 453
495 424
225 409
105 384
451 210
488 407
280 477
277 96
452 459
387 439
340 388
211 23
451 251
472 82
315 370
335 84
240 339
103 28
466 482
120 300
36 100
128 74
306 104
197 132
295 361
197 322
21 356
162 378
95 493
269 223
27 151
97 170
175 245
312 455
13 352
128 406
284 151
458 240
156 162
389 400
474 48
485 29
182 421
33 218
